(declare-fun var0 () String)
(assert (RegexIn var0 (RegexConcat (RegexUnion (RegexUnion (Str2Reg "t") (Str2Reg "u")) (RegexPlus (Str2Reg "v"))) (RegexConcat (RegexUnion (RegexUnion (Str2Reg "qqq") (Str2Reg "r")) (RegexStar (Str2Reg "s"))) (RegexConcat (RegexStar (RegexPlus (Str2Reg "pp"))) (RegexConcat (RegexPlus (RegexUnion (Str2Reg "n") (Str2Reg "ooo"))) (RegexConcat (RegexUnion (RegexPlus (Str2Reg "lll")) (RegexPlus (Str2Reg "mmm"))) (RegexConcat (RegexStar (RegexUnion (Str2Reg "jjj") (Str2Reg "kkk"))) (RegexConcat (RegexPlus (RegexUnion (Str2Reg "hhh") (Str2Reg "ii"))) (RegexConcat (RegexPlus (RegexStar (Str2Reg "ggg"))) (RegexConcat (RegexPlus (RegexUnion (Str2Reg "eee") (Str2Reg "fff"))) (RegexConcat (RegexStar (RegexStar (Str2Reg "ddd"))) (RegexConcat (RegexPlus (RegexStar (Str2Reg "c"))) (RegexConcat (RegexUnion (RegexUnion (Str2Reg "8") (Str2Reg "9")) (RegexUnion (Str2Reg "aa") (Str2Reg "bbb"))) (RegexConcat (RegexUnion (RegexPlus (Str2Reg "555")) (RegexUnion (Str2Reg "66") (Str2Reg "7"))) (RegexConcat (RegexUnion (RegexPlus (Str2Reg "333")) (RegexStar (Str2Reg "444"))) (RegexUnion (RegexUnion (Str2Reg "00") (Str2Reg "111")) (RegexPlus (Str2Reg "2")))))))))))))))))))
(check-sat)